483 5
10 10 10 10 10 

0 0 0 0 0 0 3 2 14 26 
0 0 0 0 0 0 4 3 4 6 7 
4 1 0 0 0 0 2 8 5 
8 3 0 0 0 0 3 12 11 9 
2 4 0 0 0 0 3 12 11 10 
5 1 0 0 0 0 2 12 8 
10 2 0 0 0 0 2 11 8 
6 4 0 0 0 0 1 10 
8 3 0 0 0 0 1 10 
10 1 0 0 0 0 1 13 
1 2 0 0 0 0 2 13 63 
9 4 0 0 0 0 1 13 
0 0 0 0 0 0 1 38 
0 0 0 0 0 0 5 15 16 18 23 24 
6 1 0 0 0 0 4 22 21 19 17 
6 2 0 0 0 0 2 20 19 
4 3 0 0 0 0 1 20 
3 4 0 0 0 0 1 19 
2 2 0 0 0 0 1 25 
1 1 0 0 0 0 1 25 
6 4 0 0 0 0 1 25 
3 4 0 0 0 0 2 25 240 
10 1 0 0 0 0 1 25 
8 3 0 0 0 0 1 25 
0 0 0 0 0 0 1 38 
0 0 0 0 0 0 6 27 28 30 34 35 36 
10 1 0 0 0 0 2 33 29 
8 3 0 0 0 0 3 32 31 324 
5 4 0 0 0 0 1 31 
2 2 0 0 0 0 1 31 
2 2 0 0 0 0 1 37 
3 5 0 0 0 0 1 37 
2 1 0 0 0 0 1 37 
10 1 0 0 0 0 1 37 
4 5 0 0 0 0 1 37 
4 1 0 0 0 0 1 37 
0 0 0 0 0 0 1 38 
0 0 0 0 0 0 5 39 81 123 165 207 
0 0 0 0 0 0 5 40 44 45 46 49 
4 1 0 1 1 1 3 48 43 41 
3 1 0 2 3 3 2 50 42 
2 2 0 3 1 1 5 79 55 53 51 47 
7 5 0 2 3 3 9 79 68 64 60 59 56 55 54 53 
3 5 0 1 2 2 4 79 55 53 47 
2 5 0 2 1 4 6 67 66 60 59 52 48 
4 3 0 3 6 3 8 68 64 60 59 56 55 52 51 
9 1 0 2 5 1 10 68 67 66 64 62 61 60 59 57 52 
5 2 0 2 1 2 3 68 62 50 
4 1 0 2 2 5 5 67 62 61 59 53 
4 3 0 2 2 2 4 64 61 57 53 
7 2 0 1 1 1 4 67 66 62 58 
3 5 0 3 1 5 4 73 72 69 58 
2 2 0 4 2 3 4 73 72 69 63 
10 1 0 2 1 2 3 67 62 61 
7 3 0 3 1 1 2 66 58 
1 3 0 1 3 3 2 73 57 
8 1 0 4 2 2 3 78 72 63 
2 4 0 4 2 3 2 78 63 
9 3 0 4 1 1 2 72 63 
5 3 0 1 4 1 2 78 63 
10 2 0 4 1 2 5 78 76 72 71 70 
8 2 0 2 3 1 4 78 76 72 70 
5 2 0 3 2 3 1 65 
7 2 0 3 3 1 4 78 77 76 72 
10 2 0 4 2 4 3 76 71 70 
1 3 0 2 5 2 3 76 73 71 
8 2 0 4 2 2 3 77 69 319 
3 2 0 3 6 5 1 69 
4 4 0 1 2 3 4 78 76 75 74 
9 2 0 4 1 2 2 77 74 
9 4 0 3 3 2 2 75 74 
9 1 0 3 2 1 2 75 74 
5 2 0 2 5 5 1 77 
9 2 0 4 3 4 1 80 
6 2 0 2 2 6 1 80 
5 1 0 2 5 1 1 80 
6 3 0 1 2 4 1 80 
1 2 0 2 3 2 1 80 
1 4 0 2 3 1 1 80 
0 0 0 0 0 0 1 483 
0 0 0 0 0 0 6 82 86 87 89 94 99 
6 0 1 1 1 1 3 90 85 83 
9 0 2 2 2 2 4 104 97 91 84 
5 0 4 1 3 2 8 121 114 107 105 102 98 95 88 
2 0 2 5 1 3 9 121 109 107 106 105 98 96 95 92 
8 0 3 2 3 5 8 114 108 107 105 100 97 95 93 
6 0 7 2 2 5 4 109 102 96 90 
1 0 1 6 1 2 6 120 109 108 106 100 93 
1 0 3 2 3 3 6 114 111 107 102 97 96 
4 0 2 3 1 3 5 111 106 104 97 95 
8 0 2 2 1 4 5 120 114 113 108 96 
5 0 5 4 3 1 3 120 119 97 
10 0 3 1 2 4 2 113 96 
5 0 1 2 3 1 2 105 101 
8 0 1 3 4 1 3 120 119 103 
6 0 2 2 5 2 2 119 101 
4 0 1 1 4 1 2 113 101 
9 0 1 1 2 4 2 120 101 
1 0 3 3 1 2 4 117 116 114 108 
4 0 3 4 1 2 2 119 103 
6 0 5 3 2 1 1 103 
4 0 3 4 2 3 5 118 117 115 113 112 
9 0 2 2 2 2 3 118 112 110 
6 0 3 2 4 5 2 110 105 
1 0 4 2 5 4 3 117 115 113 
9 0 2 3 3 2 3 119 118 113 
3 0 2 1 1 2 3 120 117 115 
3 0 1 2 4 1 1 111 
5 0 3 3 2 2 1 111 
4 0 2 2 2 3 2 117 115 
9 0 2 3 1 2 2 119 118 
10 0 3 1 3 2 1 116 
7 0 4 6 2 3 1 116 
1 0 3 1 6 1 1 115 
2 0 2 3 3 4 1 122 
10 0 1 3 2 2 1 122 
9 0 4 2 3 2 1 122 
6 0 1 3 3 3 1 122 
1 0 1 3 3 1 1 122 
2 0 2 2 2 5 1 122 
5 0 3 2 2 2 1 122 
0 0 0 0 0 0 1 483 
0 0 0 0 0 0 3 124 128 130 
3 1 0 1 1 1 4 133 127 126 125 
7 1 0 3 1 2 7 152 140 138 137 136 135 132 
4 1 0 4 3 2 3 136 132 129 
5 2 0 2 1 2 5 155 140 136 134 131 
5 3 0 2 5 1 4 140 138 134 131 
5 2 0 2 5 3 4 155 140 134 131 
6 3 0 5 5 5 3 137 133 132 
5 5 0 1 5 3 8 152 148 146 145 143 142 141 137 
7 2 0 2 3 3 5 146 143 142 139 134 
5 3 0 2 2 3 5 152 150 147 145 136 
5 1 0 2 1 2 5 150 148 147 145 144 
7 2 0 6 1 3 5 150 148 146 145 142 
1 5 0 2 2 2 4 148 146 141 139 
10 4 0 6 3 4 3 150 147 139 
8 2 0 3 3 2 4 155 154 150 141 
7 4 0 1 5 3 3 158 149 144 
2 2 0 3 3 4 2 150 147 
3 1 0 2 1 4 2 153 149 
10 3 0 2 1 2 2 158 149 
1 5 0 1 3 1 2 153 149 
6 3 0 3 2 1 4 157 156 154 153 
4 2 0 2 1 3 4 157 156 154 153 
4 4 0 4 1 1 3 163 153 151 
2 2 0 3 2 4 1 149 
1 2 0 2 3 2 3 156 154 153 
4 1 0 3 2 3 2 163 151 
8 4 0 1 1 1 2 158 151 
7 2 0 2 2 6 3 162 157 156 
9 3 0 3 2 1 1 154 
6 2 0 1 1 1 4 162 161 160 159 
7 2 0 1 6 2 4 163 162 160 159 
10 2 0 2 5 5 1 156 
4 2 0 4 2 3 3 161 160 159 
5 2 0 1 1 3 3 161 160 159 
4 1 0 1 3 1 2 161 159 
6 2 0 3 4 3 1 164 
3 4 0 5 2 2 1 164 
6 4 0 3 2 1 1 164 
9 2 0 3 2 4 1 164 
2 2 0 1 2 1 1 164 
0 0 0 0 0 0 1 483 
0 0 0 0 0 0 5 166 169 170 173 176 
2 0 1 1 1 1 4 182 174 171 167 
6 0 3 2 3 1 2 185 168 
8 0 1 3 3 5 8 205 191 186 181 180 179 175 172 
9 0 3 2 2 2 7 194 193 190 186 184 177 174 
8 0 2 5 3 2 6 192 191 181 180 179 172 
3 0 3 2 1 3 10 205 194 191 190 188 184 183 181 180 178 
8 0 2 2 3 7 6 194 193 190 188 184 177 
10 0 3 3 2 1 6 193 192 190 186 183 178 
9 0 6 3 4 4 4 188 185 180 179 
7 0 3 3 2 3 4 193 192 190 183 
7 0 3 3 3 1 3 196 191 180 
2 0 2 1 3 2 3 199 198 183 
1 0 2 3 4 4 2 199 179 
1 0 4 1 3 3 3 204 198 187 
2 0 4 2 1 2 3 204 199 187 
2 0 4 6 3 3 2 193 187 
1 0 1 3 2 1 2 192 190 
5 0 2 2 1 1 2 204 187 
9 0 2 2 2 2 2 204 187 
8 0 3 3 2 2 2 196 191 
4 0 4 1 2 3 2 198 189 
7 0 2 3 3 5 1 189 
3 0 1 1 1 2 5 204 203 202 200 198 
5 0 4 6 1 2 3 203 197 195 
6 0 1 3 2 2 3 201 200 196 
6 0 3 1 2 2 2 198 195 
4 0 2 3 1 1 2 198 195 
2 0 1 3 2 3 3 201 200 199 
1 0 2 1 3 1 2 200 196 
4 0 5 5 6 2 2 202 200 
8 0 3 3 3 3 2 204 203 
4 0 1 3 2 3 1 201 
7 0 1 1 2 3 1 201 
2 0 2 2 4 3 1 202 
9 0 3 2 3 2 1 206 
1 0 1 1 2 5 1 206 
6 0 1 3 3 1 1 206 
10 0 2 1 2 2 1 206 
4 0 4 2 3 4 1 206 
8 0 3 3 5 1 1 206 
0 0 0 0 0 0 1 483 
0 0 0 0 0 0 5 208 209 210 211 217 
10 1 0 0 0 0 3 216 215 212 
1 1 0 0 0 0 3 215 214 213 
6 2 0 0 0 0 2 214 213 
2 1 0 0 0 0 2 214 213 
1 7 0 0 0 0 1 213 
6 2 0 0 0 0 1 218 
9 2 0 0 0 0 1 218 
9 1 0 0 0 0 1 218 
6 3 0 0 0 0 1 218 
4 5 0 0 0 0 1 218 
0 0 0 0 0 0 5 219 251 283 315 327 
0 0 0 0 0 0 6 220 221 222 223 224 225 
10 1 1 0 1 0 3 228 227 226 
1 3 2 0 4 0 3 235 228 226 
3 2 5 0 2 0 3 235 228 226 
4 2 1 0 2 0 4 233 232 231 227 
7 1 3 0 4 0 3 233 227 226 
8 1 3 0 2 0 3 232 231 227 
3 2 4 0 1 0 5 236 234 231 230 229 
5 2 1 0 3 0 5 236 235 234 230 229 
3 1 1 0 1 0 3 233 232 229 
2 2 2 0 3 0 3 239 238 237 
4 4 3 0 3 0 3 239 238 237 
5 1 3 0 4 0 3 239 238 237 
3 4 5 0 3 0 3 239 238 237 
3 2 1 0 2 0 3 239 238 237 
2 6 2 0 3 0 2 238 237 
7 4 5 0 3 0 3 241 240 239 
10 4 2 0 2 0 1 237 
2 3 1 0 3 0 3 245 241 240 
6 2 3 0 1 0 4 249 245 243 240 
8 3 1 0 2 0 4 249 245 243 242 
2 2 1 0 2 0 2 244 242 
1 2 2 0 4 0 2 249 243 
6 3 3 0 1 0 2 248 246 
9 3 2 0 1 0 1 244 
2 4 2 0 5 0 2 248 247 
2 2 3 0 4 0 2 248 247 
3 2 4 0 2 0 1 247 
9 1 3 0 2 0 1 250 
8 3 2 0 2 0 1 250 
2 3 4 0 3 0 1 250 
0 0 0 0 0 0 1 483 
0 0 0 0 0 0 6 252 253 254 255 258 281 
3 1 0 0 1 1 5 264 263 262 259 256 
6 1 0 0 4 3 4 280 262 259 256 
10 2 0 0 2 3 3 259 257 256 
8 4 0 0 2 7 3 266 262 256 
2 2 0 0 4 3 3 272 268 260 
2 2 0 0 2 2 4 277 264 263 261 
6 3 0 0 3 1 4 279 264 263 261 
1 2 0 0 3 3 2 272 261 
9 2 0 0 4 2 1 261 
3 2 0 0 2 1 5 278 276 275 271 267 
5 5 0 0 1 1 3 274 272 265 
8 3 0 0 3 2 4 276 275 274 267 
7 3 0 0 3 3 3 276 271 269 
9 2 0 0 1 1 1 267 
2 5 0 0 3 4 2 275 270 
7 1 0 0 4 2 1 269 
7 3 0 0 2 3 2 277 274 
10 5 0 0 2 2 1 270 
1 2 0 0 3 5 1 273 
10 1 0 0 3 2 1 274 
5 1 0 0 3 1 1 277 
6 3 0 0 2 3 1 282 
5 3 0 0 3 1 1 282 
3 2 0 0 3 1 1 282 
9 3 0 0 1 5 1 282 
6 2 0 0 3 1 1 282 
4 4 0 0 3 6 1 282 
1 3 0 0 2 1 1 282 
1 2 0 0 2 2 1 282 
7 1 0 0 1 3 1 282 
0 0 0 0 0 0 1 483 
0 0 0 0 0 0 6 284 285 286 288 291 313 
10 0 1 0 1 1 4 300 292 289 287 
6 0 1 0 1 2 6 309 308 307 300 296 290 
9 0 4 0 1 1 6 312 309 305 301 299 292 
5 0 2 0 2 3 4 308 306 301 290 
2 0 2 0 2 4 4 311 309 296 290 
8 0 3 0 4 3 3 304 294 293 
5 0 1 0 6 1 2 304 293 
8 0 3 0 2 5 4 310 300 298 294 
4 0 4 0 1 5 4 308 307 304 295 
6 0 2 0 5 1 3 305 299 295 
2 0 3 0 1 2 2 306 299 
10 0 1 0 5 1 1 297 
4 0 1 0 4 4 1 297 
2 0 3 0 4 3 1 298 
9 0 1 0 1 4 1 302 
2 0 2 0 2 4 1 303 
5 0 3 0 2 2 1 306 
4 0 2 0 1 1 1 307 
8 0 2 0 1 3 1 314 
3 0 1 0 2 1 1 314 
5 0 4 0 1 1 1 314 
6 0 1 0 4 4 1 314 
5 0 5 0 1 1 1 314 
6 0 6 0 4 3 1 314 
6 0 4 0 2 2 1 314 
3 0 2 0 4 2 1 314 
9 0 3 0 2 3 1 314 
7 0 3 0 4 3 1 314 
4 0 3 0 3 2 1 314 
7 0 2 0 2 3 1 314 
0 0 0 0 0 0 1 483 
0 0 0 0 0 0 5 316 317 318 320 325 
6 0 0 1 0 0 2 324 319 
9 0 0 2 0 0 3 324 323 322 
4 0 0 3 0 0 2 323 321 
6 0 0 1 0 0 2 323 322 
2 0 0 3 0 0 1 321 
9 0 0 1 0 0 1 322 
4 0 0 2 0 0 1 326 
9 0 0 5 0 0 1 326 
7 0 0 3 0 0 1 326 
2 0 0 4 0 0 1 326 
0 0 0 0 0 0 5 359 381 403 425 437 
0 0 0 0 0 0 6 328 329 330 331 332 333 
2 0 1 1 0 1 3 336 335 334 
5 0 3 2 0 1 3 343 336 334 
2 0 2 3 0 1 3 343 336 334 
6 0 2 2 0 3 3 340 339 335 
9 0 3 3 0 2 3 340 339 335 
4 0 6 5 0 2 2 335 334 
9 0 1 4 0 2 5 344 342 339 338 337 
8 0 3 1 0 2 5 344 343 342 338 337 
8 0 4 3 0 5 2 341 340 
3 0 4 2 0 5 3 347 346 345 
1 0 2 4 0 2 3 347 346 345 
7 0 1 2 0 3 3 347 346 345 
6 0 2 3 0 3 3 347 346 345 
9 0 2 3 0 4 3 347 346 345 
7 0 3 3 0 3 2 346 345 
7 0 1 3 0 2 3 349 348 347 
5 0 1 1 0 2 1 345 
1 0 3 5 0 2 3 353 349 348 
7 0 2 2 0 3 4 357 353 351 348 
9 0 3 1 0 2 4 357 353 351 350 
3 0 3 1 0 2 2 352 350 
7 0 1 1 0 3 2 357 351 
5 0 4 1 0 4 2 356 354 
5 0 2 3 0 2 1 352 
1 0 3 5 0 3 2 356 355 
9 0 3 3 0 2 2 356 355 
8 0 2 2 0 3 1 355 
7 0 1 4 0 2 1 358 
3 0 4 1 0 3 1 358 
7 0 3 1 0 1 1 358 
0 0 0 0 0 0 1 483 
0 0 0 0 0 0 5 360 362 363 364 368 
9 0 0 1 1 0 2 369 361 
1 0 0 2 2 0 4 379 372 370 365 
6 0 0 1 2 0 3 378 367 366 
2 0 0 2 2 0 3 371 370 369 
8 0 0 2 4 0 2 369 365 
4 0 0 5 3 0 4 377 376 373 371 
4 0 0 5 3 0 4 379 376 375 370 
10 0 0 2 2 0 4 376 375 372 370 
9 0 0 2 2 0 3 379 372 371 
7 0 0 3 3 0 3 376 374 372 
10 0 0 2 4 0 3 377 374 373 
2 0 0 2 3 0 3 378 375 374 
5 0 0 6 2 0 1 373 
2 0 0 1 3 0 1 380 
6 0 0 2 3 0 1 380 
1 0 0 3 2 0 1 380 
5 0 0 2 3 0 1 380 
2 0 0 2 1 0 1 380 
5 0 0 4 2 0 1 380 
3 0 0 1 3 0 1 380 
0 0 0 0 0 0 1 483 
0 0 0 0 0 0 12 382 384 385 388 389 395 396 397 398 399 400 401 
9 0 0 1 0 1 2 394 383 
8 0 0 2 0 2 2 391 386 
10 0 0 4 0 1 2 393 391 
7 0 0 2 0 2 2 391 390 
5 0 0 6 0 2 1 387 
7 0 0 2 0 1 1 390 
7 0 0 2 0 3 1 392 
5 0 0 3 0 2 1 390 
3 0 0 1 0 7 1 402 
9 0 0 3 0 4 1 402 
8 0 0 2 0 3 1 402 
5 0 0 1 0 2 1 402 
6 0 0 1 0 4 1 402 
9 0 0 2 0 2 1 402 
6 0 0 1 0 4 1 402 
2 0 0 3 0 2 1 402 
2 0 0 2 0 2 1 402 
8 0 0 5 0 4 1 402 
8 0 0 2 0 1 1 402 
7 0 0 5 0 1 1 402 
0 0 0 0 0 0 1 483 
0 0 0 0 0 0 9 404 405 406 407 408 411 412 414 417 
7 1 1 0 0 0 4 423 422 419 409 
9 5 1 0 0 0 4 422 421 416 413 
5 3 5 0 0 0 4 422 421 413 410 
8 2 4 0 0 0 3 422 421 410 
4 2 1 0 0 0 3 422 419 413 
2 2 2 0 0 0 2 421 413 
4 3 2 0 0 0 3 420 419 415 
4 3 3 0 0 0 3 421 420 416 
6 2 2 0 0 0 2 416 415 
8 3 2 0 0 0 2 420 415 
4 3 3 0 0 0 1 415 
1 3 4 0 0 0 1 418 
10 2 3 0 0 0 1 419 
7 2 3 0 0 0 1 418 
8 1 2 0 0 0 1 424 
3 4 2 0 0 0 1 424 
3 1 2 0 0 0 1 424 
8 3 4 0 0 0 1 424 
6 2 1 0 0 0 1 424 
4 3 3 0 0 0 1 424 
0 0 0 0 0 0 1 483 
0 0 0 0 0 0 5 426 427 428 430 432 
8 0 0 0 1 0 2 431 429 
10 0 0 0 3 0 2 431 429 
6 0 0 0 2 0 3 435 433 431 
9 0 0 0 3 0 2 435 433 
3 0 0 0 2 0 2 434 433 
6 0 0 0 2 0 1 434 
5 0 0 0 3 0 1 433 
1 0 0 0 4 0 1 436 
1 0 0 0 2 0 1 436 
7 0 0 0 3 0 1 436 
0 0 0 0 0 0 2 459 471 
0 0 0 0 0 0 10 438 442 443 451 452 453 454 455 456 457 
3 1 1 0 0 0 4 450 449 448 439 
1 3 2 0 0 0 2 445 440 
5 2 4 0 0 0 1 441 
6 2 3 0 0 0 1 444 
5 2 3 0 0 0 1 447 
9 2 1 0 0 0 1 446 
5 3 1 0 0 0 1 458 
8 1 4 0 0 0 1 458 
9 2 3 0 0 0 1 458 
7 2 1 0 0 0 1 458 
6 3 3 0 0 0 1 458 
8 2 1 0 0 0 1 458 
7 2 3 0 0 0 1 458 
1 3 3 0 0 0 1 458 
6 5 3 0 0 0 1 458 
10 1 3 0 0 0 1 458 
10 2 3 0 0 0 1 458 
4 3 2 0 0 0 1 458 
6 7 1 0 0 0 1 458 
9 2 5 0 0 0 1 458 
0 0 0 0 0 0 1 483 
0 0 0 0 0 0 5 460 461 462 463 469 
2 0 0 0 1 0 4 468 467 466 465 
4 0 0 0 1 0 3 466 465 464 
9 0 0 0 2 0 3 467 466 465 
7 0 0 0 3 0 2 466 465 
9 0 0 0 4 0 1 467 
5 0 0 0 2 0 1 470 
8 0 0 0 1 0 1 470 
2 0 0 0 3 0 1 470 
3 0 0 0 4 0 1 470 
10 0 0 0 4 0 1 470 
0 0 0 0 0 0 1 483 
0 0 0 0 0 0 7 472 473 474 477 479 480 481 
10 0 0 1 0 0 1 476 
3 0 0 2 0 0 1 475 
1 0 0 6 0 0 1 475 
4 0 0 5 0 0 1 478 
9 0 0 1 0 0 1 478 
1 0 0 2 0 0 1 478 
10 0 0 1 0 0 1 482 
1 0 0 3 0 0 1 482 
10 0 0 1 0 0 1 482 
4 0 0 3 0 0 1 482 
0 0 0 0 0 0 1 483 
0 0 0 0 0 0 0 
